(set-logic BV) (define-fun origCir ((i_8 Bool) (i_9 Bool) (i_7 Bool) (i_5 Bool)) Bool (and (not (and (not (and i_9 i_5)) (and i_8 i_7))) (not (and (not i_7) i_5)))) (synth-fun skel ((i_8 Bool) (i_9 Bool) (i_7 Bool) (i_5 Bool)) Bool) (declare-var i_8 Bool) (declare-var i_9 Bool) (declare-var i_7 Bool) (declare-var i_5 Bool) (constraint (= (origCir i_8 i_9 i_7 i_5) (skel i_8 i_9 i_7 i_5))) (check-synth)
